Crypto/instances/phi15.sol
c DPLL-like Solver for max-min SAT
f file phi15.cnf
p cnf 29 164
s max 164 -21 -3 -4 -1 -2 -17 -29 9 10 -11 8 -5 -7 -16 14 -15 -28 19 -12 -22 -13 -25 -24 -6 -27 -18 -20 -23 -26
s min 139 8 -7 6 -22 5 -28 14 -13 -15 11 10 12 -23 24 16 -9 19 -27 -26 -29 -20 -18 21 -17 -25 -1 -2 -3 4
